17	4
14	12	13	13	
0	0	0	0	0	3	2	3	4	
9	4	0	0	0	3	5	7	17	
5	6	0	2	0	3	8	9	10	
6	5	0	10	1	2	15	17	
1	8	0	0	3	3	6	12	13	
225	2	0	0	8	3	11	16	17	
225	3	0	0	6	3	11	13	17	
75	5	0	2	3	2	14	17	
250	0	9	9	0	1	17	
125	6	5	0	0	1	11	
125	6	7	0	2	1	15	
25	0	8	9	0	2	14	15	
2	0	5	8	0	1	17	
7	0	0	0	7	3	17	17	17	
1	9	7	8	0	3	17	17	17	
6	9	5	2	0	3	17	17	17	
0	0	0	0	0	0	
